7
2147483647 52 19 32 46 13 60 
52 2147483647 35 90 35 65 58 
19 35 2147483647 56 61 4 1 
32 90 56 2147483647 12 58 37 
46 35 61 12 2147483647 69 39 
13 65 4 58 69 2147483647 20 
60 58 1 37 39 20 2147483647 
